%%writing Requests
array[docs,1..DAYS]  of var int: REQUESTS = array2d(docs,1..DAYS,
[0,0,0,0,0,0,0,0,0,0,0,0,0,0,0,0,0,0,0,0,0,41,41,41,41,0,0,0,0,0,0,0,0,0,0,0,0,0,0,0,0,0,0,0,0,0,0,0,0,0,0,0,0,0,0,0,0,0,0,0,0,0,0,0,0,0,0,0,0,0,0,0,0,0,0,0,0,0,0,0,0,0,0,0,0,0,0,0,0,0,0,0,0,0,0,0,0,0,0,0,0,0,0,0,0,0,0,0,0,0,0,0,0,0,0,0,0,0,0,0,0,0,0,0,99,99,41,41,41,41,0,0,0,0,0,0,0,0,0,0,0,0,0,0,0,0,0,0,0,0,0,0,0,0,0,0,0,0,0,0,0,41,41,41,41,0,0,0,0,0,0,0,0,0,0,0,0,0,0,0,0,0,0,0,0,0,0,0,0,0,0,0,0,0,0,0,0,0,0,0,0,0,0,0,0,0,0,0,0,0,0,0,0,0,0,0,0,0,0,0,0,0,0,0,0,0,0,0,0,99,99,41,41,41,41,99,99,99,91,0,0,0,0,0,0,0,0,0,0,0,0,0,0,0,0,0,92,99,0,0,0,0,0,0,0,0,0,0,0,0,0,0,0,0,0,0,0,0,0,0,0,0,0,0,0,0,0,43,43,43,43,0,0,0,43,43,43,43,0,0,0,43,43,43,43,0,0,0,0,0,0,0,0,92,0,0,0,0,0,0,0,0,0,0,0,0,0,99,99,0,0,0,0,0,0,0,0,0,0,0,0,0,0,0,0,0,0,0,0,0,0,2,0,0,0,2,2,41,41,41,41,0,0,0,0,0,0,0,0,2,2,0,0,0,0,0,0,0,0,0,0,0,0,0,0,0,0,0,0,0,0,0,0,0,0,0,0,0,0,0,0,0,0,0,0,0,0,0,0,0,0,0,0,0,0,0,0,0,0,0,0,0,0,0,99,99,0,0,0,41,0,99,99,0,0,0,41,0,99,99,0,0,0,0,0,99,99,0,0,0,0,0,99,99,0,0,0,41,0,99,99,0,0,0,41,0,99,99,0,0,0,0,0,99,99,0,0,0,0,0,99,99,0,0,0,0,0,99,99,0,41,41,41,41,99,99,99,99,0,0,0,0,0,0,0,0,0,0,0,0,0,0,0,0,0,99,99,99,41,0,0,0,0,99,99,0,0,0,0,0,99,99,0,0,0,0,0,99,99,0,0,0,0,0,0,0,0,0,0,0,0,0,0,0,0,0,0,99,99,99,99,2,0,1,1,99,99,41,41,41,41,0,0,0,99,0,0,0,0,0,0,0,0,0,0,0,0,0,0,0,0,99,1,99,99,0,0,0,0,0,0,0,0,0,0,0,0,0,0,0,0,0,0,0,99,99,41,41,41,41,99,99,99,0,0,0,0,0,0,0,41,41,0,0,0,0,0,0,0,0,0,0,0,0,0,0,0,0,0,0,0,0,0,0,0,0,0,0,0,0,0,0,0,0,0,0,0,0,0,0,0,0,0,0,0,0,0,0,0,0,0,0,0,99,99,99,41,41,41,41,99,99,99,41,41,41,41,0,0,0,0,0,0,41,0,0,0,0,0,0,41,0,41,0,41,0,41,41,0,0,0,0,0,0,41,0,0,0,0,0,0,41,0,0,0,0,0,0,41,0,0,0,0,0,0,41,0,0,0,0,0,0,41,0,0,0,0,0,0,41,0,0,0,0,0,0,41,0,0,0,44,44,44,44,0,0,0,44,44,44,44,0,0,0,44,44,44,44,0,0,0,44,44,44,44,0,0,0,44,44,44,44,0,0,0,44,44,44,44,0,0,0,0,0,0,0,0,0,0,0,0,0,0,0,0,0,0,0,0,0,0,0,0,0,0,0,0,0,0,0,0,0,0,0,0,99,0,0,0,0,0,0,0,0,0,0,0,0,0,0,0,0,0,0,0,0,99,99,41,0,41,0,41,99,99,0,0,0,0,0,0,0,0,0,0,0,0,0,0,0,0,42,0,42,0,0,0,0,0,0,0,0,0,0,0,0,0,0,0,0,0,0,0,0,0,91,0,0,0,0,0,0,0,0,0,0,0,0,41,0,0,41,0,41,0,41,99,0,0,0,0,0,0,0,0,0,0,0,0,0,0,0,0,0,0,0,0,99,0,0,0,0,0,0,0,0,0,0,0,0,0,0,0,0,0,0,0,0,99,0,0,0,0,0,0,0,0,0,0,0,0,0,0,0,0,0,0,0,0,0,0,42,42,0,0,0,0,0,0,0,0,0,0,0,0,0,0,0,0,0,0,0,41,41,0,0,0,0,0,0,0,0,0,0,0,0,0,0,0,0,0,0,0,0,0,0,0,0,0,0,0,0,0,2,0,0,99,0,0,0,99,0,0,2,0,0,0,3,0,0,2,0,0,1,1,2,0,2,0,0,1,2,0,0,0,0,0,0,43,0,0,0,0,0,0,43,0,0,0,0,0,0,43,0,0,0,0,0,0,43,0,0,0,0,0,0,43,0,0,0,0,0,0,0,0,0,0,0,0,0,0,0,0,0,0,0,0,0,0,0,0,0,0,0,0,0,0,0,0,0,0,0,0,0,0,0,0,0,0,0,0,0,0,0,0,0,0,0,0,0,0,0,0,0,0,0,0,0,0,0,0,0,0,0,0,0,0,0,0,0,0,41,0,0,0,0,0,0,0,0,0,0,0,0,0,0,0,0,0,0,0,0,0,0,0,0,0,41,0,41,0,41,0,0,0,0,0,0,0,0,0,0,0,0,0,0,0,0,0,0,0,0,1,0,0,0,0,0,0,0,0,0,0,0,0,0,0,0,0,0,0,0,0,0,0,0,0,0,0,0,0,0,0,0,0,0,0,0,0,1,0,0,0,0,0,0,0,0,0,0,0,0,0,0,0,0,0,0,0,0,1,0,0,0,0,0,0,0,0,0,0,0,0,0,0,0,0,0,0,0,0,0,0,0,0,0,0,0,1,0,1,0,2,0,2,2,0,0,0,2,0,0,0,0,99,1,0,0,1,1,1,0,0,2,0,0,0,0,1,0,2,0,2,2,0,0,0,2,0,0,0,0,1,0,0,0,1,1,1,0,0,2,0,0,0,0,1,1,2,2,99,99,99,0,0,2,0,0,0,0,0,99,0,0,0,0,0,0,0,0,0,0,99,0,0,0,0,0,0,0,0,0,0,0,0,0,0,0,0,0,0,0,0,0,0,0,0,0,99,99,99,0,0,0,0,0,0,0,0,0,0,0,0,0,0,0,0,0,0,0,0,0,0,0,0,0,0,0,0,0,0,0,0,99,0,1,99,0,0,0,0,0,0,0,0,0,0,0,0,0,0,0,0,0,0,0,0,0,0,0,0,0,0,0,0,0,0,0,0,0,0,0,0,0,0,0,0,0,0,0,1,0,41,0,0,0,0,41,0,41,0,0,0,0,0,0,0,0,0,0,41,0,0,0,0,0,2,0,0,0,0,0,0,0,41,0,0,0,0,0,0,1,0,0,0,0,0,0,1,0,0,0,0,0,1,0,0,0,0,0,0,0,2,0,0,0,0,0,0,1,0,0,0,0,0,0,1,0,0,0,0,0,2,0,0,0,0,0,0,0,0,0,0,0,0,0,0,0,0,0,0,0,0,1,0,0,0,0,0,0,0,0,0,0,0,0,0,1,0,0,0,0,0,0,0,0,0,0,0,0,0,1,0,0,0,0,0,0,0,0,0,0,0,0,0,1,0,0,0,0,0,0,0,0,0,0,0,0,0,1,0,0,0,0,0,0,0,0,0,0,0,0,0,0,0,0,0,0,0,0,0,0,0,0,0,0,0,0,0,41,41,0,0,0,0,0,0,0,0,0,0,0,0,0,0,0,0,0,0,0,0,0,0,0,0,0,0,0,0,0,0,0,0,0,0,0,0,0,0,0,77,0,1,0,0,0,0,0,0,1,0,0,0,0,0,0,1,0,0,0,0,0,0,1,0,0,0,0,0,0,1,0,0,0,0,0,0,1,0,0,0,0,0,0,1,0,0,0,0,0,0,42,0,0,0,0,0,0,1,0,0,0,0,0,0,1,0,0,0,77]
); % end of array dump 

constraint forall(doc in docs, day in 1..DAYS)
(  if    REQUESTS[ doc, day ] = 99  then roster[ doc, day ]   =  o
  elseif REQUESTS[ doc, day ] = 41  then roster[ doc, day ]   =  l % AL
  elseif REQUESTS[ doc, day ] = 42   then roster[ doc, day ]   =  l % CONF
  elseif REQUESTS[ doc, day ] = 43   then roster[ doc, day ]   =  l % LSL
  elseif REQUESTS[ doc, day ] = 44   then roster[ doc, day ]   =  l % PAR
  elseif REQUESTS[ doc, day ] = 4   then roster[ doc, day ]   =  c % csupport
  elseif REQUESTS[ doc, day ] = 1   then roster[ doc, day ]   =  a
  elseif REQUESTS[ doc, day ] = 2   then roster[ doc, day ]   =  p
  elseif REQUESTS[ doc, day ] = 3   then (roster[ doc, day ]   =  p \/ roster[doc,day]= a)
  elseif REQUESTS[ doc, day ] = 91  then roster[ doc, day ]  !=  a
  elseif REQUESTS[ doc, day ] = 92  then roster[ doc, day ]  !=  p
  elseif REQUESTS[ doc, day ] = 99  then roster[ doc, day ]   =  o
  else true
  endif);

constraint count(roster[RG,..],l)=4;
constraint count(roster[GM,..],l)=4;
constraint count(roster[DB,..],l)=4;
constraint count(roster[CC,..],l)=4;
constraint count(roster[MC,..],l)=12;
constraint count(roster[SD,..],l)=4;
constraint count(roster[ML,..],l)=4;
constraint count(roster[HL,..],l)=5;
constraint count(roster[DL,..],l)=8;
constraint count(roster[RM,..],l)=10;
constraint count(roster[GN,..],l)=13;
constraint count(roster[EW,..],l)=24;
constraint count(roster[LB,..],l)=5;
constraint count(roster[DH,..],l)=4;
constraint count(roster[SK,..],l)=4;
constraint count(roster[BL,..],l)=5;
constraint count(roster[CP,..],l)=0;
constraint count(roster[RP,..],l)=4;
constraint count(roster[AR,..],l)=0;
constraint count(roster[LS,..],l)=0;
constraint count(roster[AV,..],l)=0;
constraint count(roster[LC,..],l)=3;
constraint count(roster[KM,..],l)=2;
constraint count(roster[DZ,..],l)=0;
constraint count(roster[BB,..],l)=2;
constraint count(roster[JD,..],l)=1;